--Link1--
%chk=molecule
#HF/6-31G* SCF=tight Test Pop=MK iop(6/33=2) iop(6/42=6) opt

remark line goes here

-2   1
    C    3.2070000000       -1.6690000000        6.4010000000     
    C    4.9320000000       -1.0130000000        7.9440000000     
    C    2.3270000000       -0.7850000000        7.0050000000     
    C    4.0550000000       -0.1350000000        8.5510000000     
    C    4.5020000000       -1.7810000000        6.8710000000     
    C    2.7590000000       -0.0350000000        8.0620000000     
    C    4.5460000000       -4.6550000000        7.1900000000     
    C    6.2840000000       -4.6740000000        5.3700000000     
    C    5.0480000000       -3.9770000000        5.9250000000     
    O    5.0930000000       -4.4960000000        8.2990000000     
    O    6.2380000000       -5.7450000000        4.7800000000     
    O    3.4880000000       -5.3640000000        6.9710000000     
    O    7.3760000000       -4.0160000000        5.5940000000     
    O    5.4230000000       -2.6230000000        6.2940000000     
   Br    1.5550000000        1.1770000000        8.8810000000     
    H    4.2540000000       -3.9660000000        5.1640000000     
    H    4.3740000000        0.4680000000        9.3940000000     
    H    1.3100000000       -0.6890000000        6.6430000000     
    H    5.9500000000       -1.1030000000        8.3050000000     
    H    2.8800000000       -2.2710000000        5.5610000000     


