--Link1--
%chk=molecule
#HF/6-31G* SCF=tight Test Pop=MK iop(6/33=2) iop(6/42=6) opt

remark line goes here

-2   1
    C    2.2750000000       -0.2960000000        7.8280000000     
    C    4.0800000000       -0.3240000000        9.3690000000     
    C    3.0370000000       -1.0090000000        6.9220000000     
    C    4.8460000000       -1.0300000000        8.4580000000     
    C   -4.5160000000        9.2570000000       12.9740000000     
    C   -3.1570000000        9.0390000000       12.8340000000     
    C   -3.1600000000        7.5870000000       14.7550000000     
    C    2.7850000000        0.0600000000        9.0640000000     
    C    4.3340000000       -1.3870000000        7.2230000000     
    C   -5.2170000000        8.6360000000       14.0070000000     
    C   -2.4760000000        8.2140000000       13.7190000000     
    C   -4.5230000000        7.8040000000       14.8830000000     
    C   -6.9140000000        8.0400000000       15.3130000000     
    C   -0.4580000000        6.7920000000       13.5870000000     
    C    4.0870000000       -4.1700000000        6.5830000000     
    C    5.7370000000       -3.7300000000        4.7340000000     
    C    2.1540000000        3.9840000000       11.9870000000     
    C   -8.3310000000        7.9850000000       15.8070000000     
    C    1.9290000000        0.8120000000       10.0600000000     
    C    4.6000000000       -3.1570000000        5.5720000000     
    C    0.9880000000        6.8150000000       13.1400000000     
    C    2.4350000000        2.1990000000       10.3590000000     
    C    1.8040000000        5.6850000000       13.7300000000     
    O    4.6930000000       -4.4260000000        7.6420000000     
    N   -6.5800000000        8.7590000000       14.2690000000     
    N   -1.0870000000        7.9930000000       13.5610000000     
    N    1.9240000000        2.7140000000       11.6230000000     
    N    1.5270000000        4.4000000000       13.0980000000     
    O   -0.9990000000        5.7560000000       13.9670000000     
    O    5.5600000000       -4.5420000000        3.8360000000     
    O    2.9550000000       -4.6810000000        6.2250000000     
    O    2.9320000000        4.7020000000       11.3650000000     
    O    6.8970000000       -3.2710000000        5.0800000000     
    O    5.1220000000       -2.0330000000        6.3290000000     
    S   -5.6230000000        7.1680000000       16.0720000000     
    H    0.8390000000        3.8020000000       13.5110000000     
    H    1.3970000000        2.1140000000       12.2250000000     
    H   -0.5140000000        8.8000000000       13.4160000000     
    H    2.8710000000        5.9180000000       13.6020000000     
    H    1.5730000000        5.6070000000       14.8030000000     
    H    2.1190000000        2.8730000000        9.5490000000     
    H    3.5340000000        2.1710000000       10.4070000000     
    H    1.0180000000        6.7340000000       12.0430000000     
    H    1.4360000000        7.7710000000       13.4490000000     
    H    3.7800000000       -2.8350000000        4.9140000000     
    H    1.9040000000        0.2400000000       10.9990000000     
    H    0.9100000000        0.8930000000        9.6520000000     
    H   -8.6920000000        6.9460000000       15.7700000000     
    H   -8.3730000000        8.3510000000       16.8430000000     
    H   -8.9660000000        8.6160000000       15.1680000000     
    H   -2.6360000000        6.9400000000       15.4500000000     
    H   -2.6180000000        9.5180000000       12.0250000000     
    H   -5.0350000000        9.9100000000       12.2810000000     
    H    5.8610000000       -1.3080000000        8.7160000000     
    H    2.6120000000       -1.2750000000        5.9600000000     
    H    4.5000000000       -0.0680000000       10.3350000000     
    H    1.2620000000       -0.0120000000        7.5660000000     


