--Link1--
%chk=molecule
#HF/6-31G* SCF=tight Test Pop=MK iop(6/33=2) iop(6/42=6) opt

remark line goes here

0   1
    C   -4.5180000000        9.2370000000       12.8850000000     
    C   -3.1590000000        8.9700000000       12.7940000000     
    C   -3.2790000000        7.5950000000       14.7860000000     
    C   -5.2730000000        8.6870000000       13.9220000000     
    C   -2.5290000000        8.1570000000       13.7360000000     
    C   -4.6340000000        7.8670000000       14.8550000000     
    C   -7.0150000000        8.2270000000       15.1760000000     
    C   -9.4820000000        8.3890000000       19.8760000000     
    C   -8.7980000000        8.6420000000       18.5190000000     
    C   -0.4900000000        6.7950000000       14.0320000000     
    C    1.8930000000        3.5410000000       13.4330000000     
    C   -8.6490000000        7.5700000000       17.4230000000     
    C    0.9470000000        6.7240000000       13.5450000000     
    C    1.8280000000        5.8230000000       14.3810000000     
    N   -6.6370000000        8.8700000000       14.1300000000     
    N    1.3150000000        2.3250000000       13.4190000000     
    N   -1.1480000000        7.9000000000       13.6180000000     
    N    1.3930000000        4.4220000000       14.3070000000     
    O   -1.0090000000        5.9080000000       14.7350000000     
    S   -5.7860000000        7.3200000000       16.0320000000     
    S   -8.7070000000        8.2240000000       15.7290000000     
    O    2.8310000000        3.8400000000       12.6680000000     
    H    0.6870000000        4.1110000000       14.9430000000     
    H   -0.5900000000        8.6010000000       13.1730000000     
    H    0.5570000000        2.1240000000       14.0400000000     
    H    1.6450000000        1.6230000000       12.7870000000     
    H   -7.7760000000        8.9730000000       18.7560000000     
    H   -9.3530000000        9.4700000000       18.0540000000     
    H    2.8630000000        5.8950000000       14.0150000000     
    H    1.7850000000        6.1540000000       15.4290000000     
    H    0.9460000000        6.3470000000       12.5110000000     
    H    1.3710000000        7.7390000000       13.5640000000     
    H   -9.4650000000        6.8420000000       17.5400000000     
    H   -7.6830000000        7.0640000000       17.5650000000     
    H  -10.5260000000        8.0870000000       19.7100000000     
    H   -8.9490000000        7.5900000000       20.4110000000     
    H   -9.4580000000        9.3110000000       20.4760000000     
    H   -2.8040000000        6.9610000000       15.5260000000     
    H   -2.5810000000        9.3970000000       11.9820000000     
    H   -4.9940000000        9.8750000000       12.1490000000     


