--Link1--
%chk=molecule
#HF/6-31G* SCF=tight Test Pop=MK iop(6/33=2) iop(6/42=6) opt

remark line goes here

0   1
    C    1.3860000000        1.9630000000        9.4050000000     
    C   -4.6820000000        9.3060000000       12.9160000000     
    C   -3.3080000000        9.1620000000       12.8020000000     
    C    2.1820000000        2.0540000000       10.6720000000     
    C   -3.2530000000        7.7060000000       14.7390000000     
    C   -5.3570000000        8.6510000000       13.9500000000     
    C   -2.5950000000        8.3500000000       13.6910000000     
    C   -4.6260000000        7.8710000000       14.8530000000     
    C   -7.0360000000        8.0560000000       15.2950000000     
    C   -0.5080000000        6.9850000000       13.6750000000     
    C    2.0610000000        4.0320000000       12.1350000000     
    C   -8.4050000000        7.9950000000       15.9080000000     
    C    0.9290000000        7.0630000000       13.1940000000     
    C    1.7840000000        5.9170000000       13.7000000000     
    N   -6.7240000000        8.7290000000       14.2130000000     
    N    1.5220000000        2.8800000000       11.6870000000     
    N   -1.2130000000        8.1230000000       13.4720000000     
    N    1.3730000000        4.6430000000       13.1230000000     
    O   -0.9780000000        5.9630000000       14.1960000000     
    O    3.1140000000        4.4940000000       11.6770000000     
    S   -5.6900000000        7.2370000000       16.0740000000     
    H    0.5460000000        4.2030000000       13.4730000000     
    H   -0.6930000000        8.9020000000       13.1230000000     
    H    0.6440000000        2.5790000000       12.0590000000     
    H    2.8340000000        6.1080000000       13.4310000000     
    H    1.6920000000        5.8590000000       14.7950000000     
    H    0.9320000000        7.0440000000       12.0940000000     
    H    1.3660000000        8.0090000000       13.5450000000     
    H   -8.7320000000        6.9470000000       15.9710000000     
    H   -8.3750000000        8.4320000000       16.9170000000     
    H   -9.1110000000        8.5630000000       15.2840000000     
    H   -2.7060000000        7.0920000000       15.4450000000     
    H    3.1630000000        2.4950000000       10.4420000000     
    H    2.3210000000        1.0410000000       11.0760000000     
    H   -2.7790000000        9.6860000000       12.0140000000     
    H   -5.2280000000        9.9210000000       12.2090000000     
    H    0.4040000000        1.5160000000        9.6200000000     
    H    1.2470000000        2.9700000000        8.9860000000     
    H    1.9240000000        1.3350000000        8.6790000000     


