--Link1--
%chk=molecule
#HF/6-31G* SCF=tight Test Pop=MK iop(6/33=2) iop(6/42=6) opt

remark line goes here

-2   1
    C    1.4380000000        1.4920000000        9.2700000000     
    O    2.1620000000        0.3190000000        9.6210000000     
    C    2.9010000000       -0.2910000000        8.6430000000     
    C    2.3880000000       -0.7650000000        7.4450000000     
    C    3.2300000000       -1.3910000000        6.5140000000     
    C    4.5880000000       -1.5310000000        6.7780000000     
    C    5.0870000000       -1.0700000000        7.9890000000     
    C    4.2730000000       -0.4460000000        8.9120000000     
    C    5.5070000000       -2.2320000000        5.8340000000     
    C    5.8780000000       -3.6500000000        6.2990000000     
    C    4.6670000000       -4.5500000000        6.2800000000     
    O    3.8310000000       -4.4610000000        5.4280000000     
    O    4.6270000000       -5.4420000000        7.2520000000     
    C    6.9540000000       -4.2510000000        5.4360000000     
    O    6.7070000000       -5.1790000000        4.6780000000     
    O    8.1530000000       -3.6590000000        5.5540000000     
    H    6.2530000000       -3.5860000000        7.3310000000     
    H    6.4310000000       -1.6420000000        5.7390000000     
    H    5.0150000000       -2.3030000000        4.8530000000     
    H    6.1390000000       -1.2030000000        8.2140000000     
    H    2.8210000000       -1.7670000000        5.5830000000     
    H    1.3330000000       -0.6500000000        7.2270000000     
    H    2.1370000000        2.2630000000        8.9150000000     
    H    0.7190000000        1.2540000000        8.4720000000     
    H    0.8960000000        1.8660000000       10.1510000000     
    H    4.6890000000       -0.0750000000        9.8410000000     


