--Link1--
%chk=molecule
#HF/6-31G* SCF=tight Test Pop=MK iop(6/33=2) iop(6/42=6) opt(MaxCyc=100)

remark line goes here

2   1
    C    5.4450000000       -2.9480000000        5.3300000000     
    C    6.3190000000       -4.1920000000        5.4630000000     
    C    4.2920000000       -3.0640000000        6.3260000000     
    O    5.8180000000       -5.2710000000        5.0320000000     
    O    7.4480000000       -4.0000000000        5.9880000000     
    O    4.1410000000       -2.0630000000        7.1110000000     
    O    3.6340000000       -4.1400000000        6.2560000000     
    H    5.0470000000       -2.8810000000        4.3060000000     
    H    6.0400000000       -2.0500000000        5.5510000000     


