--Link1--
%chk=molecule
#HF/6-31G* SCF=tight Test Pop=MK iop(6/33=2) iop(6/42=6) opt

remark line goes here

-2   1
    C    2.2840000000       -0.3920000000        7.8960000000     
    C    4.1120000000       -0.2720000000        9.4040000000     
    C    3.0590000000       -1.1220000000        7.0150000000     
    C    4.8900000000       -0.9950000000        8.5200000000     
    C   -4.5260000000        9.3590000000       12.9870000000     
    C   -3.1690000000        9.1620000000       12.8100000000     
    C   -3.0920000000        7.7150000000       14.7320000000     
    C    2.7980000000        0.0430000000        9.1040000000     
    C    4.3720000000       -1.4380000000        7.3160000000     
    C   -5.1860000000        8.7260000000       14.0380000000     
    C   -2.4500000000        8.3480000000       13.6750000000     
    C   -4.4520000000        7.9100000000       14.8950000000     
    C   -6.8360000000        8.1000000000       15.3960000000     
    C   -0.3650000000        7.0250000000       13.7200000000     
    C    2.1900000000        4.1060000000       12.1580000000     
    C    4.7910000000       -4.4380000000        7.5070000000     
    C    6.7610000000       -4.2110000000        6.0200000000     
    C   -8.8590000000        8.0950000000       20.2900000000     
    C    1.9460000000        0.8280000000       10.0780000000     
    C    5.2180000000       -2.2320000000        6.3560000000     
    C    1.0940000000        7.0790000000       13.3240000000     
    C    1.7280000000        2.7400000000       11.7230000000     
    C    2.4690000000        2.1830000000       10.5170000000     
    C    1.8870000000        5.9010000000       13.8410000000     
    C    5.8430000000       -3.4900000000        6.9870000000     
    N   -6.5450000000        8.8170000000       14.3370000000     
    N   -1.0590000000        8.1590000000       13.4940000000     
    N    1.5170000000        4.6510000000       13.1790000000     
    O   -0.8800000000        6.0030000000       14.1670000000     
    O    3.1200000000        4.6670000000       11.5840000000     
    O    4.8610000000       -4.9000000000        8.6320000000     
    O    7.8870000000       -3.7960000000        5.8090000000     
    O    3.8390000000       -4.6930000000        6.6660000000     
    O    6.2620000000       -5.2790000000        5.4650000000     
    S   -5.5020000000        7.2650000000       16.1220000000     
    C   -8.3240000000        8.3980000000       18.8790000000     
    C   -8.2210000000        7.3460000000       17.7590000000     
    S   -8.4760000000        8.0100000000       16.0870000000     
    H   -7.3040000000        8.7840000000       19.0220000000     
    H   -8.9650000000        9.1980000000       18.4800000000     
    H   -8.9800000000        6.5720000000       17.9420000000     
    H   -7.2190000000        6.8950000000       17.8010000000     
    H   -9.8960000000        7.7360000000       20.2200000000     
    H   -8.2350000000        7.3220000000       20.7610000000     
    H   -8.8290000000        9.0120000000       20.8980000000     
    H    0.7060000000        4.1700000000       13.5120000000     
    H   -0.5380000000        8.9470000000       13.1640000000     
    H    6.4510000000       -3.1620000000        7.8430000000     
    H    2.9570000000        6.0900000000       13.6670000000     
    H    1.7040000000        5.7970000000       14.9210000000     
    H    2.3610000000        2.8890000000        9.6810000000     
    H    3.5340000000        2.0810000000       10.7750000000     
    H    1.8680000000        2.0450000000       12.5640000000     
    H    0.6590000000        2.8020000000       11.4720000000     
    H    1.1600000000        7.0920000000       12.2260000000     
    H    1.5340000000        8.0030000000       13.7280000000     
    H    4.5880000000       -2.5420000000        5.5100000000     
    H    6.0300000000       -1.5850000000        5.9910000000     
    H    1.8210000000        0.2120000000       10.9810000000     
    H    0.9650000000        0.9890000000        9.6060000000     
    H   -2.5390000000        7.0820000000       15.4160000000     
    H   -2.6600000000        9.6480000000       11.9850000000     
    H   -5.0750000000       10.0030000000       12.3100000000     
    H    5.9200000000       -1.2180000000        8.7740000000     
    H    2.6330000000       -1.4510000000        6.0740000000     
    H    4.5370000000        0.0530000000       10.3460000000     
    H    1.2580000000       -0.1580000000        7.6370000000     


