--Link1--
%chk=molecule
#HF/6-31G* SCF=tight Test Pop=MK iop(6/33=2) iop(6/42=6) opt

remark line goes here

0   1
    C   -5.8070000000        7.4170000000       15.3700000000     
    C   -4.6850000000        7.7770000000       14.6560000000     
    C   -4.7630000000        8.7740000000       13.6950000000     
    C   -5.9800000000        9.4030000000       13.4600000000     
    C   -7.1300000000        9.0530000000       14.1690000000     
    C   -7.0290000000        8.0490000000       15.1340000000     
    C   -8.4760000000        9.7030000000       13.9530000000     
    N   -8.9690000000       10.1630000000       12.8130000000     
    N  -10.2080000000       10.6460000000       13.1010000000     
    N  -10.4730000000       10.4970000000       14.3580000000     
    N   -9.3950000000        9.9030000000       14.9080000000     
   Cl   -6.0040000000       10.6460000000       12.2460000000     
    H   -8.5070000000       10.1570000000       11.8930000000     
    H   -7.9040000000        7.7580000000       15.7030000000     
    H   -3.8820000000        9.0600000000       13.1310000000     
    H   -3.7410000000        7.2790000000       14.8450000000     
    H   -5.7400000000        6.6380000000       16.1210000000     


