--Link1--
%chk=molecule
#HF/6-31G* SCF=tight Test Pop=MK iop(6/33=2) iop(6/42=6) opt

remark line goes here

-1   1
    C    3.9300000000       -0.3670000000        8.8530000000     
    C    2.2610000000       -0.7080000000        7.1700000000     
    C    4.8410000000       -1.0670000000        8.0840000000     
    C    3.1730000000       -1.4370000000        6.4290000000     
    C   -4.5630000000        9.2740000000       12.9950000000     
    C   -3.2010000000        9.0830000000       12.8440000000     
    C   -3.1600000000        7.6340000000       14.7670000000     
    C    4.4760000000       -1.6020000000        6.8590000000     
    C   -5.2470000000        8.6440000000       14.0370000000     
    C    2.6480000000       -0.1650000000        8.3780000000     
    C   -2.4990000000        8.2560000000       13.7140000000     
    C   -4.5240000000        7.8310000000       14.9110000000     
    C   -6.9160000000        8.0050000000       15.3670000000     
    C   -0.4190000000        6.8980000000       13.6200000000     
    C    6.8850000000       -4.4920000000        5.9840000000     
    C    1.9180000000        4.0180000000       12.2370000000     
    C   -8.3130000000        7.8810000000       15.9020000000     
    C    2.1390000000        1.0830000000       10.3770000000     
    C    5.4420000000       -2.4360000000        6.0570000000     
    C    1.0080000000        6.9910000000       13.1440000000     
    C    1.2600000000        2.2630000000       10.6550000000     
    C    1.8900000000        5.9360000000       13.7660000000     
    C    6.0520000000       -3.6010000000        6.8590000000     
    N   -6.6090000000        8.7380000000       14.3220000000     
    N   -1.1070000000        8.0600000000       13.5530000000     
    N    1.4440000000        2.7830000000       12.0040000000     
    N    1.4890000000        4.5920000000       13.3730000000     
    O   -0.8940000000        5.8460000000       14.0390000000     
    O    6.4410000000       -5.4890000000        5.4370000000     
    O    2.7270000000        4.5640000000       11.4880000000     
    O    8.1020000000       -4.0630000000        5.8520000000     
    O    1.7270000000        0.5330000000        9.1210000000     
    S   -5.5890000000        7.1890000000       16.1270000000     
    H    0.8730000000        4.0780000000       13.9700000000     
    H    1.2100000000        2.2000000000       12.7820000000     
    H   -0.5670000000        8.8810000000       13.3680000000     
    H    2.9290000000        6.1060000000       13.4450000000     
    H    1.8270000000        6.0200000000       14.8610000000     
    H    0.2100000000        1.9590000000       10.5320000000     
    H    1.4980000000        3.0580000000        9.9330000000     
    H    1.0250000000        6.8670000000       12.0510000000     
    H    1.4040000000        7.9830000000       13.4060000000     
    H    4.9090000000       -2.8510000000        5.1890000000     
    H    6.2590000000       -1.7870000000        5.7090000000     
    H    3.1910000000        1.4010000000       10.3230000000     
    H    2.0240000000        0.3320000000       11.1730000000     
    H   -8.6200000000        6.8240000000       15.8830000000     
    H   -8.3440000000        8.2530000000       16.9370000000     
    H   -8.9990000000        8.4730000000       15.2790000000     
    H   -2.6180000000        7.0050000000       15.4640000000     
    H   -2.6760000000        9.5830000000       12.0390000000     
    H   -5.1000000000        9.9130000000       12.3040000000     
    H    2.8600000000       -1.8870000000        5.4940000000     
    H    5.8560000000       -1.1980000000        8.4440000000     
    H    1.2510000000       -0.5640000000        6.8040000000     
    H    4.2200000000        0.0200000000        9.8240000000     
    H    6.6860000000       -3.1920000000        7.6590000000     
    H    5.2390000000       -4.1940000000        7.3030000000     


