--Link1--
%chk=molecule
#HF/6-31G* SCF=tight Test Pop=MK iop(6/33=2) iop(6/42=6) opt

remark line goes here

0   1
    C    0.9770000000        6.7540000000       12.9020000000     
    C   -0.3710000000        6.7780000000       13.5930000000     
    O   -0.8400000000        5.8010000000       14.1810000000     
    N   -1.0430000000        7.9710000000       13.5020000000     
    C   -2.4520000000        8.1720000000       13.6430000000     
    C   -3.1800000000        8.9100000000       12.7010000000     
    C   -4.5430000000        9.0970000000       12.8540000000     
    C   -5.2190000000        8.5530000000       13.9370000000     
    C   -4.4740000000        7.8190000000       14.8640000000     
    C   -3.1050000000        7.6290000000       14.7250000000     
    S   -5.5070000000        7.2320000000       16.1420000000     
    C   -6.8700000000        8.0260000000       15.3430000000     
    N   -6.5850000000        8.6530000000       14.2300000000     
    N   -8.0730000000        7.9710000000       15.8340000000     
    C   -8.4480000000        7.1910000000       16.9970000000     
    H   -8.2380000000        6.1280000000       16.8090000000     
    H   -7.8690000000        7.5310000000       17.8680000000     
    H   -9.5220000000        7.3230000000       17.1960000000     
    H   -8.8090000000        8.5190000000       15.3650000000     
    H   -2.5550000000        7.0570000000       15.4640000000     
    H   -5.0890000000        9.6750000000       12.1170000000     
    H   -2.6710000000        9.3380000000       11.8450000000     
    H   -0.4900000000        8.7840000000       13.3180000000     
    H    0.8430000000        6.9630000000       11.8300000000     
    H    1.6290000000        7.5200000000       13.3460000000     
    H    1.4360000000        5.7630000000       13.0290000000     


