--Link1--
%chk=molecule
#HF/6-31G* SCF=tight Test Pop=MK iop(6/33=2) iop(6/42=6) opt

remark line goes here

0   1
    C   -4.7050000000        9.3640000000       12.9600000000     
    C   -3.3330000000        9.2050000000       12.8360000000     
    C   -3.2920000000        7.7290000000       14.7560000000     
    C   -5.3850000000        8.7220000000       14.0010000000     
    C   -2.6250000000        8.3760000000       13.7170000000     
    C   -4.6580000000        7.9170000000       14.8870000000     
    C   -7.0450000000        8.1190000000       15.3550000000     
    C   -0.5180000000        7.0520000000       13.7190000000     
    C    2.0260000000        4.1370000000       12.4340000000     
    C   -8.4440000000        8.0350000000       15.8930000000     
    C    0.9220000000        7.1630000000       13.2480000000     
    C    1.8450000000        6.1400000000       13.8710000000     
    N   -6.7450000000        8.8220000000       14.2850000000     
    N    1.5120000000        2.9290000000       12.1370000000     
    N   -1.2300000000        8.1880000000       13.5560000000     
    N    1.4820000000        4.7730000000       13.4760000000     
    O   -0.9930000000        6.0050000000       14.1950000000     
    O    2.9500000000        4.6470000000       11.7690000000     
    S   -5.7130000000        7.2650000000       16.0940000000     
    H    0.7900000000        4.2920000000       14.0160000000     
    H   -0.7080000000        8.9980000000       13.2880000000     
    H    0.7640000000        2.5560000000       12.6860000000     
    H    1.8770000000        2.4050000000       11.3680000000     
    H    2.8760000000        6.3430000000       13.5460000000     
    H    1.7830000000        6.2230000000       14.9660000000     
    H    0.9420000000        7.0300000000       12.1560000000     
    H    1.2940000000        8.1670000000       13.5020000000     
    H   -8.7820000000        6.9880000000       15.8710000000     
    H   -8.4610000000        8.4040000000       16.9290000000     
    H   -9.1130000000        8.6490000000       15.2730000000     
    H   -2.7530000000        7.0910000000       15.4470000000     
    H   -2.8010000000        9.7280000000       12.0500000000     
    H   -5.2480000000        9.9820000000       12.2540000000     


