--Link1--
%chk=molecule
#HF/6-31G* SCF=tight Test Pop=MK iop(6/33=2) iop(6/42=6) opt

remark line goes here

-1   1
    C   -4.5180000000        9.2370000000       12.8850000000     
    C   -3.1590000000        8.9700000000       12.7940000000     
    C   -3.2790000000        7.5950000000       14.7860000000     
    C   -5.2730000000        8.6870000000       13.9220000000     
    C   -2.5290000000        8.1570000000       13.7360000000     
    C   -4.6340000000        7.8670000000       14.8550000000     
    C   -7.0150000000        8.2270000000       15.1760000000     
    C   -9.4820000000        8.3890000000       19.8760000000     
    C   -8.7980000000        8.6420000000       18.5190000000     
    C   -0.4520000000        6.7960000000       14.0110000000     
    C    3.0600000000        5.4860000000       13.8710000000     
    C   -8.6490000000        7.5700000000       17.4230000000     
    C    1.0160000000        6.9940000000       14.2140000000     
    C    1.8440000000        6.1220000000       13.2680000000     
    N   -6.6370000000        8.8700000000       14.1300000000     
    N   -1.1270000000        7.9110000000       13.6020000000     
    O   -1.0060000000        5.6980000000       14.2040000000     
    O    3.5410000000        5.8190000000       14.9510000000     
    O    3.5740000000        4.5480000000       13.1190000000     
    S   -5.7860000000        7.3200000000       16.0320000000     
    S   -8.7070000000        8.2240000000       15.7290000000     
    H   -7.7760000000        8.9730000000       18.7560000000     
    H   -9.3530000000        9.4700000000       18.0540000000     
    H   -0.5850000000        8.6290000000       13.1650000000     
    H    1.1940000000        5.3180000000       12.8920000000     
    H    2.1730000000        6.7510000000       12.4280000000     
    H    1.2620000000        8.0500000000       14.0310000000     
    H    1.2700000000        6.7330000000       15.2520000000     
    H   -9.4650000000        6.8420000000       17.5400000000     
    H   -7.6830000000        7.0640000000       17.5650000000     
    H  -10.5260000000        8.0870000000       19.7100000000     
    H   -8.9490000000        7.5900000000       20.4110000000     
    H   -9.4580000000        9.3110000000       20.4760000000     
    H   -2.8040000000        6.9610000000       15.5260000000     
    H   -2.5810000000        9.3970000000       11.9820000000     
    H   -4.9940000000        9.8750000000       12.1490000000     


